2200
356
4231
927
2650
1483
4014
2742
1880
1737
2658
2299
4076
681
3125
4071
399
2987
1247
3101
2510
4164
3239
3643
2875
1311
3906
3882
1457
237
1236
2354
657
2631
2233
1770
229
1111
543
4114
4212
3994
1024
3342
2134
2444
866
1550
2333
618
955
3362
755
916
3805
2051
3657
2497
3220
2842
3703
2126
1344
3687
3296
1941
364
3609
2084
2602
3905
3652
1433
1017
546
4034
2815
1065
628
1864
1253
3070
2560
3397
1368
3522
1687
542
1974
976
2747
4198
1161
3444
1579
1293
3378
1324
3656
921
